<instance format="XCSP3" type="COP">
  <variables>
    <var id="x" note="x is the number of unused bins"> 0..23 </var>
    <array id="b" note="b[i][j] indicates the weight of the jth object put in the ith bin. It is 0 if there is no object at this place." size="[23][3]"> 0 250 252 255 256 260 261 263..268 273 279 281 286 293 296 297 303 307 314 318 322 324 326 327 329 330 353 362 365 366 370 373 378 380 392 406 407 410 412 422 432 454 465 476 478 480 487 </array>
  </variables>
  <constraints>
    <group>
      <mdd>
        <list> %... </list>
        <transitions> (root,0,n3)(root,250,n3)(root,252,n5)(root,255,n6)(root,256,n9)(root,260,n11)(root,261,n11)(root,263,n14)(root,264,n15)(root,265,n18)(root,266,n20)(root,267,n21)(root,268,n23)(root,273,n25)(root,279,n27)(root,281,n30)(root,286,n32)(root,293,n34)(root,296,n35)(root,297,n37)(root,303,n39)(root,307,n41)(root,314,n43)(root,318,n45)(root,322,n47)(root,324,n49)(root,326,n51)(root,327,n53)(root,329,n55)(root,330,n57)(root,353,n59)(root,362,n60)(root,365,n61)(root,366,n62)(root,370,n63)(root,373,n64)(root,378,n65)(root,380,n66)(root,392,n67)(root,406,n68)(root,407,n69)(root,410,n70)(root,412,n71)(root,422,n72)(root,432,n73)(root,454,n74)(root,465,n75)(root,476,n76)(root,478,n77)(root,480,n78)(root,487,n79)(n3,0,n4)(n4,0,nodeT)(n5,0,n4)(n5,250,n4)(n6,0,n4)(n6,250,n4)(n6,252,n7)(n6,255,n8)(n7,0,nodeT)(n7,250,nodeT)(n8,0,nodeT)(n8,250,nodeT)(n8,252,nodeT)(n9,0,n4)(n9,250,n4)(n9,252,n7)(n9,255,n10)(n9,256,n10)(n10,0,nodeT)(n10,250,nodeT)(n10,252,nodeT)(n10,255,nodeT)(n11,0,n4)(n11,250,n4)(n11,252,n7)(n11,255,n10)(n11,256,n12)(n11,260,n13)(n12,0,nodeT)(n12,250,nodeT)(n12,252,nodeT)(n12,255,nodeT)(n12,256,nodeT)(n13,0,nodeT)(n13,250,nodeT)(n13,252,nodeT)(n13,255,nodeT)(n13,256,nodeT)(n13,260,nodeT)(n14,0,n4)(n14,250,n4)(n14,252,n7)(n14,255,n10)(n14,256,n12)(n14,260,n13)(n14,261,n13)(n15,0,n4)(n15,250,n4)(n15,252,n7)(n15,255,n10)(n15,256,n12)(n15,260,n13)(n15,261,n13)(n15,263,n16)(n15,264,n17)(n16,0,nodeT)(n16,250,nodeT)(n16,252,nodeT)(n16,255,nodeT)(n16,256,nodeT)(n16,260,nodeT)(n16,261,nodeT)(n17,0,nodeT)(n17,250,nodeT)(n17,252,nodeT)(n17,255,nodeT)(n17,256,nodeT)(n17,260,nodeT)(n17,261,nodeT)(n17,263,nodeT)(n18,0,n4)(n18,250,n4)(n18,252,n7)(n18,255,n10)(n18,256,n12)(n18,260,n13)(n18,261,n13)(n18,263,n16)(n18,264,n19)(n19,0,nodeT)(n19,250,nodeT)(n19,252,nodeT)(n19,255,nodeT)(n19,256,nodeT)(n19,260,nodeT)(n19,261,nodeT)(n19,263,nodeT)(n19,264,nodeT)(n20,0,n4)(n20,250,n4)(n20,252,n7)(n20,255,n10)(n20,256,n12)(n20,260,n13)(n20,261,n13)(n20,263,n16)(n20,264,n19)(n20,265,n19)(n21,0,n4)(n21,250,n4)(n21,252,n7)(n21,255,n10)(n21,256,n12)(n21,260,n13)(n21,261,n13)(n21,263,n16)(n21,264,n19)(n21,265,n19)(n21,266,n22)(n22,0,nodeT)(n22,250,nodeT)(n22,252,nodeT)(n22,255,nodeT)(n22,256,nodeT)(n22,260,nodeT)(n22,261,nodeT)(n22,263,nodeT)(n22,264,nodeT)(n22,265,nodeT)(n23,0,n4)(n23,250,n4)(n23,252,n7)(n23,255,n10)(n23,256,n12)(n23,260,n13)(n23,261,n13)(n23,263,n16)(n23,264,n19)(n23,265,n19)(n23,266,n22)(n23,267,n24)(n24,0,nodeT)(n24,250,nodeT)(n24,252,nodeT)(n24,255,nodeT)(n24,256,nodeT)(n24,260,nodeT)(n24,261,nodeT)(n24,263,nodeT)(n24,264,nodeT)(n24,265,nodeT)(n24,266,nodeT)(n25,0,n4)(n25,250,n4)(n25,252,n7)(n25,255,n10)(n25,256,n12)(n25,260,n13)(n25,261,n13)(n25,263,n16)(n25,264,n19)(n25,265,n19)(n25,266,n22)(n25,267,n24)(n25,268,n26)(n26,0,nodeT)(n26,250,nodeT)(n26,252,nodeT)(n26,255,nodeT)(n26,256,nodeT)(n26,260,nodeT)(n26,261,nodeT)(n26,263,nodeT)(n26,264,nodeT)(n26,265,nodeT)(n26,266,nodeT)(n26,267,nodeT)(n27,0,n4)(n27,250,n4)(n27,252,n7)(n27,255,n10)(n27,256,n12)(n27,260,n13)(n27,261,n13)(n27,263,n16)(n27,264,n19)(n27,265,n19)(n27,266,n22)(n27,267,n24)(n27,268,n26)(n27,273,n28)(n27,279,n29)(n28,0,nodeT)(n28,250,nodeT)(n28,252,nodeT)(n28,255,nodeT)(n28,256,nodeT)(n28,260,nodeT)(n28,261,nodeT)(n28,263,nodeT)(n28,264,nodeT)(n28,265,nodeT)(n28,266,nodeT)(n28,267,nodeT)(n28,268,nodeT)(n29,0,nodeT)(n29,250,nodeT)(n29,252,nodeT)(n29,255,nodeT)(n29,256,nodeT)(n29,260,nodeT)(n29,261,nodeT)(n29,263,nodeT)(n29,264,nodeT)(n29,265,nodeT)(n29,266,nodeT)(n29,267,nodeT)(n29,268,nodeT)(n29,273,nodeT)(n30,0,n4)(n30,250,n4)(n30,252,n7)(n30,255,n10)(n30,256,n12)(n30,260,n13)(n30,261,n13)(n30,263,n16)(n30,264,n19)(n30,265,n19)(n30,266,n22)(n30,267,n24)(n30,268,n26)(n30,273,n28)(n30,279,n31)(n30,281,n31)(n31,0,nodeT)(n31,250,nodeT)(n31,252,nodeT)(n31,255,nodeT)(n31,256,nodeT)(n31,260,nodeT)(n31,261,nodeT)(n31,263,nodeT)(n31,264,nodeT)(n31,265,nodeT)(n31,266,nodeT)(n31,267,nodeT)(n31,268,nodeT)(n31,273,nodeT)(n31,279,nodeT)(n32,0,n4)(n32,250,n4)(n32,252,n7)(n32,255,n10)(n32,256,n12)(n32,260,n13)(n32,261,n13)(n32,263,n16)(n32,264,n19)(n32,265,n19)(n32,266,n22)(n32,267,n24)(n32,268,n26)(n32,273,n28)(n32,279,n31)(n32,281,n33)(n33,0,nodeT)(n33,250,nodeT)(n33,252,nodeT)(n33,255,nodeT)(n33,256,nodeT)(n33,260,nodeT)(n33,261,nodeT)(n33,263,nodeT)(n33,264,nodeT)(n33,265,nodeT)(n33,266,nodeT)(n33,267,nodeT)(n33,268,nodeT)(n33,273,nodeT)(n33,279,nodeT)(n33,281,nodeT)(n34,0,n4)(n34,250,n4)(n34,252,n7)(n34,255,n10)(n34,256,n12)(n34,260,n13)(n34,261,n13)(n34,263,n16)(n34,264,n19)(n34,265,n19)(n34,266,n22)(n34,267,n24)(n34,268,n26)(n34,273,n28)(n34,279,n31)(n34,281,n33)(n34,286,n33)(n35,0,n4)(n35,250,n4)(n35,252,n7)(n35,255,n10)(n35,256,n12)(n35,260,n13)(n35,261,n13)(n35,263,n16)(n35,264,n19)(n35,265,n19)(n35,266,n22)(n35,267,n24)(n35,268,n26)(n35,273,n28)(n35,279,n31)(n35,281,n33)(n35,286,n33)(n35,293,n36)(n36,0,nodeT)(n36,250,nodeT)(n36,252,nodeT)(n36,255,nodeT)(n36,256,nodeT)(n36,260,nodeT)(n36,261,nodeT)(n36,263,nodeT)(n36,264,nodeT)(n36,265,nodeT)(n36,266,nodeT)(n36,267,nodeT)(n36,268,nodeT)(n36,273,nodeT)(n36,279,nodeT)(n36,281,nodeT)(n36,286,nodeT)(n37,0,n4)(n37,250,n4)(n37,252,n7)(n37,255,n10)(n37,256,n12)(n37,260,n13)(n37,261,n13)(n37,263,n16)(n37,264,n19)(n37,265,n19)(n37,266,n22)(n37,267,n24)(n37,268,n26)(n37,273,n28)(n37,279,n31)(n37,281,n33)(n37,286,n33)(n37,293,n36)(n37,296,n38)(n38,0,nodeT)(n38,250,nodeT)(n38,252,nodeT)(n38,255,nodeT)(n38,256,nodeT)(n38,260,nodeT)(n38,261,nodeT)(n38,263,nodeT)(n38,264,nodeT)(n38,265,nodeT)(n38,266,nodeT)(n38,267,nodeT)(n38,268,nodeT)(n38,273,nodeT)(n38,279,nodeT)(n38,281,nodeT)(n38,286,nodeT)(n38,293,nodeT)(n39,0,n4)(n39,250,n4)(n39,252,n7)(n39,255,n10)(n39,256,n12)(n39,260,n13)(n39,261,n13)(n39,263,n16)(n39,264,n19)(n39,265,n19)(n39,266,n22)(n39,267,n24)(n39,268,n26)(n39,273,n28)(n39,279,n31)(n39,281,n33)(n39,286,n33)(n39,293,n36)(n39,296,n38)(n39,297,n40)(n40,0,nodeT)(n40,250,nodeT)(n40,252,nodeT)(n40,255,nodeT)(n40,256,nodeT)(n40,260,nodeT)(n40,261,nodeT)(n40,263,nodeT)(n40,264,nodeT)(n40,265,nodeT)(n40,266,nodeT)(n40,267,nodeT)(n40,268,nodeT)(n40,273,nodeT)(n40,279,nodeT)(n40,281,nodeT)(n40,286,nodeT)(n40,293,nodeT)(n40,296,nodeT)(n41,0,n4)(n41,250,n4)(n41,252,n7)(n41,255,n10)(n41,256,n12)(n41,260,n13)(n41,261,n13)(n41,263,n16)(n41,264,n19)(n41,265,n19)(n41,266,n22)(n41,267,n24)(n41,268,n26)(n41,273,n28)(n41,279,n31)(n41,281,n33)(n41,286,n33)(n41,293,n36)(n41,296,n38)(n41,297,n40)(n41,303,n42)(n42,0,nodeT)(n42,250,nodeT)(n42,252,nodeT)(n42,255,nodeT)(n42,256,nodeT)(n42,260,nodeT)(n42,261,nodeT)(n42,263,nodeT)(n42,264,nodeT)(n42,265,nodeT)(n42,266,nodeT)(n42,267,nodeT)(n42,268,nodeT)(n42,273,nodeT)(n42,279,nodeT)(n42,281,nodeT)(n42,286,nodeT)(n42,293,nodeT)(n42,296,nodeT)(n42,297,nodeT)(n43,0,n4)(n43,250,n4)(n43,252,n7)(n43,255,n10)(n43,256,n12)(n43,260,n13)(n43,261,n13)(n43,263,n16)(n43,264,n19)(n43,265,n19)(n43,266,n22)(n43,267,n24)(n43,268,n26)(n43,273,n28)(n43,279,n31)(n43,281,n33)(n43,286,n33)(n43,293,n36)(n43,296,n38)(n43,297,n40)(n43,303,n42)(n43,307,n44)(n44,0,nodeT)(n44,250,nodeT)(n44,252,nodeT)(n44,255,nodeT)(n44,256,nodeT)(n44,260,nodeT)(n44,261,nodeT)(n44,263,nodeT)(n44,264,nodeT)(n44,265,nodeT)(n44,266,nodeT)(n44,267,nodeT)(n44,268,nodeT)(n44,273,nodeT)(n44,279,nodeT)(n44,281,nodeT)(n44,286,nodeT)(n44,293,nodeT)(n44,296,nodeT)(n44,297,nodeT)(n44,303,nodeT)(n45,0,n4)(n45,250,n4)(n45,252,n7)(n45,255,n10)(n45,256,n12)(n45,260,n13)(n45,261,n13)(n45,263,n16)(n45,264,n19)(n45,265,n19)(n45,266,n22)(n45,267,n24)(n45,268,n26)(n45,273,n28)(n45,279,n31)(n45,281,n33)(n45,286,n33)(n45,293,n36)(n45,296,n38)(n45,297,n40)(n45,303,n42)(n45,307,n44)(n45,314,n46)(n46,0,nodeT)(n46,250,nodeT)(n46,252,nodeT)(n46,255,nodeT)(n46,256,nodeT)(n46,260,nodeT)(n46,261,nodeT)(n46,263,nodeT)(n46,264,nodeT)(n46,265,nodeT)(n46,266,nodeT)(n46,267,nodeT)(n46,268,nodeT)(n46,273,nodeT)(n46,279,nodeT)(n46,281,nodeT)(n46,286,nodeT)(n46,293,nodeT)(n46,296,nodeT)(n46,297,nodeT)(n46,303,nodeT)(n46,307,nodeT)(n47,0,n4)(n47,250,n4)(n47,252,n7)(n47,255,n10)(n47,256,n12)(n47,260,n13)(n47,261,n13)(n47,263,n16)(n47,264,n19)(n47,265,n19)(n47,266,n22)(n47,267,n24)(n47,268,n26)(n47,273,n28)(n47,279,n31)(n47,281,n33)(n47,286,n33)(n47,293,n36)(n47,296,n38)(n47,297,n40)(n47,303,n42)(n47,307,n44)(n47,314,n46)(n47,318,n48)(n48,0,nodeT)(n48,250,nodeT)(n48,252,nodeT)(n48,255,nodeT)(n48,256,nodeT)(n48,260,nodeT)(n48,261,nodeT)(n48,263,nodeT)(n48,264,nodeT)(n48,265,nodeT)(n48,266,nodeT)(n48,267,nodeT)(n48,268,nodeT)(n48,273,nodeT)(n48,279,nodeT)(n48,281,nodeT)(n48,286,nodeT)(n48,293,nodeT)(n48,296,nodeT)(n48,297,nodeT)(n48,303,nodeT)(n48,307,nodeT)(n48,314,nodeT)(n49,0,n4)(n49,250,n4)(n49,252,n7)(n49,255,n10)(n49,256,n12)(n49,260,n13)(n49,261,n13)(n49,263,n16)(n49,264,n19)(n49,265,n19)(n49,266,n22)(n49,267,n24)(n49,268,n26)(n49,273,n28)(n49,279,n31)(n49,281,n33)(n49,286,n33)(n49,293,n36)(n49,296,n38)(n49,297,n40)(n49,303,n42)(n49,307,n44)(n49,314,n46)(n49,318,n48)(n49,322,n50)(n50,0,nodeT)(n50,250,nodeT)(n50,252,nodeT)(n50,255,nodeT)(n50,256,nodeT)(n50,260,nodeT)(n50,261,nodeT)(n50,263,nodeT)(n50,264,nodeT)(n50,265,nodeT)(n50,266,nodeT)(n50,267,nodeT)(n50,268,nodeT)(n50,273,nodeT)(n50,279,nodeT)(n50,281,nodeT)(n50,286,nodeT)(n50,293,nodeT)(n50,296,nodeT)(n50,297,nodeT)(n50,303,nodeT)(n50,307,nodeT)(n50,314,nodeT)(n50,318,nodeT)(n51,0,n4)(n51,250,n4)(n51,252,n7)(n51,255,n10)(n51,256,n12)(n51,260,n13)(n51,261,n13)(n51,263,n16)(n51,264,n19)(n51,265,n19)(n51,266,n22)(n51,267,n24)(n51,268,n26)(n51,273,n28)(n51,279,n31)(n51,281,n33)(n51,286,n33)(n51,293,n36)(n51,296,n38)(n51,297,n40)(n51,303,n42)(n51,307,n44)(n51,314,n46)(n51,318,n48)(n51,322,n50)(n51,324,n52)(n52,0,nodeT)(n52,250,nodeT)(n52,252,nodeT)(n52,255,nodeT)(n52,256,nodeT)(n52,260,nodeT)(n52,261,nodeT)(n52,263,nodeT)(n52,264,nodeT)(n52,265,nodeT)(n52,266,nodeT)(n52,267,nodeT)(n52,268,nodeT)(n52,273,nodeT)(n52,279,nodeT)(n52,281,nodeT)(n52,286,nodeT)(n52,293,nodeT)(n52,296,nodeT)(n52,297,nodeT)(n52,303,nodeT)(n52,307,nodeT)(n52,314,nodeT)(n52,318,nodeT)(n52,322,nodeT)(n53,0,n4)(n53,250,n4)(n53,252,n7)(n53,255,n10)(n53,256,n12)(n53,260,n13)(n53,261,n13)(n53,263,n16)(n53,264,n19)(n53,265,n19)(n53,266,n22)(n53,267,n24)(n53,268,n26)(n53,273,n28)(n53,279,n31)(n53,281,n33)(n53,286,n33)(n53,293,n36)(n53,296,n38)(n53,297,n40)(n53,303,n42)(n53,307,n44)(n53,314,n46)(n53,318,n48)(n53,322,n50)(n53,324,n52)(n53,326,n54)(n54,0,nodeT)(n54,250,nodeT)(n54,252,nodeT)(n54,255,nodeT)(n54,256,nodeT)(n54,260,nodeT)(n54,261,nodeT)(n54,263,nodeT)(n54,264,nodeT)(n54,265,nodeT)(n54,266,nodeT)(n54,267,nodeT)(n54,268,nodeT)(n54,273,nodeT)(n54,279,nodeT)(n54,281,nodeT)(n54,286,nodeT)(n54,293,nodeT)(n54,296,nodeT)(n54,297,nodeT)(n54,303,nodeT)(n54,307,nodeT)(n54,314,nodeT)(n54,318,nodeT)(n54,322,nodeT)(n54,324,nodeT)(n55,0,n4)(n55,250,n4)(n55,252,n7)(n55,255,n10)(n55,256,n12)(n55,260,n13)(n55,261,n13)(n55,263,n16)(n55,264,n19)(n55,265,n19)(n55,266,n22)(n55,267,n24)(n55,268,n26)(n55,273,n28)(n55,279,n31)(n55,281,n33)(n55,286,n33)(n55,293,n36)(n55,296,n38)(n55,297,n40)(n55,303,n42)(n55,307,n44)(n55,314,n46)(n55,318,n48)(n55,322,n50)(n55,324,n52)(n55,326,n54)(n55,327,n56)(n56,0,nodeT)(n56,250,nodeT)(n56,252,nodeT)(n56,255,nodeT)(n56,256,nodeT)(n56,260,nodeT)(n56,261,nodeT)(n56,263,nodeT)(n56,264,nodeT)(n56,265,nodeT)(n56,266,nodeT)(n56,267,nodeT)(n56,268,nodeT)(n56,273,nodeT)(n56,279,nodeT)(n56,281,nodeT)(n56,286,nodeT)(n56,293,nodeT)(n56,296,nodeT)(n56,297,nodeT)(n56,303,nodeT)(n56,307,nodeT)(n56,314,nodeT)(n56,318,nodeT)(n56,322,nodeT)(n56,324,nodeT)(n56,326,nodeT)(n57,0,n4)(n57,250,n4)(n57,252,n7)(n57,255,n10)(n57,256,n12)(n57,260,n13)(n57,261,n13)(n57,263,n16)(n57,264,n19)(n57,265,n19)(n57,266,n22)(n57,267,n24)(n57,268,n26)(n57,273,n28)(n57,279,n31)(n57,281,n33)(n57,286,n33)(n57,293,n36)(n57,296,n38)(n57,297,n40)(n57,303,n42)(n57,307,n44)(n57,314,n46)(n57,318,n48)(n57,322,n50)(n57,324,n52)(n57,326,n54)(n57,327,n56)(n57,329,n58)(n58,0,nodeT)(n58,250,nodeT)(n58,252,nodeT)(n58,255,nodeT)(n58,256,nodeT)(n58,260,nodeT)(n58,261,nodeT)(n58,263,nodeT)(n58,264,nodeT)(n58,265,nodeT)(n58,266,nodeT)(n58,267,nodeT)(n58,268,nodeT)(n58,273,nodeT)(n58,279,nodeT)(n58,281,nodeT)(n58,286,nodeT)(n58,293,nodeT)(n58,296,nodeT)(n58,297,nodeT)(n58,303,nodeT)(n58,307,nodeT)(n58,314,nodeT)(n58,318,nodeT)(n58,322,nodeT)(n58,324,nodeT)(n58,326,nodeT)(n58,327,nodeT)(n59,0,n4)(n59,250,n4)(n59,252,n7)(n59,255,n10)(n59,256,n12)(n59,260,n13)(n59,261,n13)(n59,263,n16)(n59,264,n19)(n59,265,n19)(n59,266,n22)(n59,267,n24)(n59,268,n26)(n59,273,n28)(n59,279,n31)(n59,281,n33)(n59,286,n33)(n59,293,n36)(n59,296,n38)(n59,297,n40)(n59,303,n42)(n59,307,n44)(n59,314,n46)(n59,318,n48)(n59,322,n50)(n59,324,n52)(n59,326,n50)(n59,327,n50)(n59,329,n50)(n59,330,n48)(n60,0,n4)(n60,250,n4)(n60,252,n7)(n60,255,n10)(n60,256,n12)(n60,260,n13)(n60,261,n13)(n60,263,n16)(n60,264,n19)(n60,265,n19)(n60,266,n22)(n60,267,n24)(n60,268,n26)(n60,273,n28)(n60,279,n31)(n60,281,n33)(n60,286,n33)(n60,293,n36)(n60,296,n38)(n60,297,n40)(n60,303,n42)(n60,307,n44)(n60,314,n46)(n60,318,n48)(n60,322,n48)(n60,324,n48)(n60,326,n46)(n60,327,n46)(n60,329,n46)(n60,330,n46)(n60,353,n33)(n61,0,n4)(n61,250,n4)(n61,252,n7)(n61,255,n10)(n61,256,n12)(n61,260,n13)(n61,261,n13)(n61,263,n16)(n61,264,n19)(n61,265,n19)(n61,266,n22)(n61,267,n24)(n61,268,n26)(n61,273,n28)(n61,279,n31)(n61,281,n33)(n61,286,n33)(n61,293,n36)(n61,296,n38)(n61,297,n40)(n61,303,n42)(n61,307,n44)(n61,314,n46)(n61,318,n48)(n61,322,n46)(n61,324,n46)(n61,326,n46)(n61,327,n46)(n61,329,n44)(n61,330,n44)(n61,353,n33)(n61,362,n29)(n61,365,n28)(n62,0,n4)(n62,250,n4)(n62,252,n7)(n62,255,n10)(n62,256,n12)(n62,260,n13)(n62,261,n13)(n62,263,n16)(n62,264,n19)(n62,265,n19)(n62,266,n22)(n62,267,n24)(n62,268,n26)(n62,273,n28)(n62,279,n31)(n62,281,n33)(n62,286,n33)(n62,293,n36)(n62,296,n38)(n62,297,n40)(n62,303,n42)(n62,307,n44)(n62,314,n46)(n62,318,n48)(n62,322,n46)(n62,324,n46)(n62,326,n46)(n62,327,n46)(n62,329,n44)(n62,330,n44)(n62,353,n33)(n62,362,n28)(n62,365,n28)(n63,0,n4)(n63,250,n4)(n63,252,n7)(n63,255,n10)(n63,256,n12)(n63,260,n13)(n63,261,n13)(n63,263,n16)(n63,264,n19)(n63,265,n19)(n63,266,n22)(n63,267,n24)(n63,268,n26)(n63,273,n28)(n63,279,n31)(n63,281,n33)(n63,286,n33)(n63,293,n36)(n63,296,n38)(n63,297,n40)(n63,303,n42)(n63,307,n44)(n63,314,n46)(n63,318,n46)(n63,322,n46)(n63,324,n44)(n63,326,n44)(n63,327,n44)(n63,329,n42)(n63,330,n42)(n63,353,n29)(n63,362,n28)(n63,365,n22)(n63,366,n19)(n63,370,n13)(n64,0,n4)(n64,250,n4)(n64,252,n7)(n64,255,n10)(n64,256,n12)(n64,260,n13)(n64,261,n13)(n64,263,n16)(n64,264,n19)(n64,265,n19)(n64,266,n22)(n64,267,n24)(n64,268,n26)(n64,273,n28)(n64,279,n31)(n64,281,n33)(n64,286,n33)(n64,293,n36)(n64,296,n38)(n64,297,n40)(n64,303,n42)(n64,307,n44)(n64,314,n46)(n64,318,n46)(n64,322,n44)(n64,324,n44)(n64,326,n42)(n64,327,n42)(n64,329,n42)(n64,330,n42)(n64,353,n29)(n64,362,n22)(n64,365,n16)(n64,366,n16)(n64,370,n12)(n65,0,n4)(n65,250,n4)(n65,252,n7)(n65,255,n10)(n65,256,n12)(n65,260,n13)(n65,261,n13)(n65,263,n16)(n65,264,n19)(n65,265,n19)(n65,266,n22)(n65,267,n24)(n65,268,n26)(n65,273,n28)(n65,279,n31)(n65,281,n33)(n65,286,n33)(n65,293,n36)(n65,296,n38)(n65,297,n40)(n65,303,n42)(n65,307,n44)(n65,314,n46)(n65,318,n44)(n65,322,n42)(n65,324,n42)(n65,326,n40)(n65,327,n38)(n65,329,n38)(n65,330,n36)(n65,353,n28)(n65,362,n13)(n65,365,n12)(n65,366,n12)(n65,370,n8)(n65,373,n4)(n66,0,n4)(n66,250,n4)(n66,252,n7)(n66,255,n10)(n66,256,n12)(n66,260,n13)(n66,261,n13)(n66,263,n16)(n66,264,n19)(n66,265,n19)(n66,266,n22)(n66,267,n24)(n66,268,n26)(n66,273,n28)(n66,279,n31)(n66,281,n33)(n66,286,n33)(n66,293,n36)(n66,296,n38)(n66,297,n40)(n66,303,n42)(n66,307,n44)(n66,314,n44)(n66,318,n42)(n66,322,n42)(n66,324,n40)(n66,326,n38)(n66,327,n38)(n66,329,n36)(n66,330,n36)(n66,353,n26)(n66,362,n12)(n66,365,n10)(n66,366,n8)(n66,370,n7)(n66,373,n4)(n66,378,n4)(n67,0,n4)(n67,250,n4)(n67,252,n7)(n67,255,n10)(n67,256,n12)(n67,260,n13)(n67,261,n13)(n67,263,n16)(n67,264,n19)(n67,265,n19)(n67,266,n22)(n67,267,n24)(n67,268,n26)(n67,273,n28)(n67,279,n31)(n67,281,n33)(n67,286,n33)(n67,293,n36)(n67,296,n38)(n67,297,n40)(n67,303,n42)(n67,307,n42)(n67,314,n38)(n67,318,n36)(n67,322,n36)(n67,324,n33)(n67,326,n33)(n67,327,n33)(n67,329,n31)(n67,330,n29)(n67,353,n10)(n67,362,n4)(n67,365,n4)(n67,366,n4)(n67,370,n4)(n67,373,n4)(n67,378,n4)(n67,380,n4)(n68,0,n4)(n68,250,n4)(n68,252,n7)(n68,255,n10)(n68,256,n12)(n68,260,n13)(n68,261,n13)(n68,263,n16)(n68,264,n19)(n68,265,n19)(n68,266,n22)(n68,267,n24)(n68,268,n26)(n68,273,n28)(n68,279,n31)(n68,281,n33)(n68,286,n33)(n68,293,n36)(n68,296,n38)(n68,297,n40)(n68,303,n36)(n68,307,n36)(n68,314,n31)(n68,318,n29)(n68,322,n28)(n68,324,n28)(n68,326,n28)(n68,327,n26)(n68,329,n22)(n68,330,n19)(n68,353,n4)(n68,362,n4)(n68,365,n4)(n68,366,n4)(n68,370,n4)(n68,373,n4)(n68,378,n4)(n68,380,n4)(n68,392,n4)(n69,0,n4)(n69,250,n4)(n69,252,n7)(n69,255,n10)(n69,256,n12)(n69,260,n13)(n69,261,n13)(n69,263,n16)(n69,264,n19)(n69,265,n19)(n69,266,n22)(n69,267,n24)(n69,268,n26)(n69,273,n28)(n69,279,n31)(n69,281,n33)(n69,286,n33)(n69,293,n36)(n69,296,n38)(n69,297,n40)(n69,303,n36)(n69,307,n36)(n69,314,n31)(n69,318,n29)(n69,322,n28)(n69,324,n28)(n69,326,n26)(n69,327,n24)(n69,329,n19)(n69,330,n17)(n69,353,n4)(n69,362,n4)(n69,365,n4)(n69,366,n4)(n69,370,n4)(n69,373,n4)(n69,378,n4)(n69,380,n4)(n69,392,n4)(n69,406,n4)(n70,0,n4)(n70,250,n4)(n70,252,n7)(n70,255,n10)(n70,256,n12)(n70,260,n13)(n70,261,n13)(n70,263,n16)(n70,264,n19)(n70,265,n19)(n70,266,n22)(n70,267,n24)(n70,268,n26)(n70,273,n28)(n70,279,n31)(n70,281,n33)(n70,286,n33)(n70,293,n36)(n70,296,n38)(n70,297,n38)(n70,303,n36)(n70,307,n33)(n70,314,n29)(n70,318,n28)(n70,322,n28)(n70,324,n24)(n70,326,n19)(n70,327,n17)(n70,329,n16)(n70,330,n13)(n70,353,n4)(n70,362,n4)(n70,365,n4)(n70,366,n4)(n70,370,n4)(n70,373,n4)(n70,378,n4)(n70,380,n4)(n70,392,n4)(n70,406,n4)(n70,407,n4)(n70,410,n4)(n71,0,n4)(n71,250,n4)(n71,252,n7)(n71,255,n10)(n71,256,n12)(n71,260,n13)(n71,261,n13)(n71,263,n16)(n71,264,n19)(n71,265,n19)(n71,266,n22)(n71,267,n24)(n71,268,n26)(n71,273,n28)(n71,279,n31)(n71,281,n33)(n71,286,n33)(n71,293,n36)(n71,296,n36)(n71,297,n36)(n71,303,n33)(n71,307,n33)(n71,314,n29)(n71,318,n28)(n71,322,n24)(n71,324,n19)(n71,326,n16)(n71,327,n16)(n71,329,n12)(n71,330,n12)(n71,353,n4)(n71,362,n4)(n71,365,n4)(n71,366,n4)(n71,370,n4)(n71,373,n4)(n71,378,n4)(n71,380,n4)(n71,392,n4)(n71,406,n4)(n71,407,n4)(n71,410,n4)(n72,0,n4)(n72,250,n4)(n72,252,n7)(n72,255,n10)(n72,256,n12)(n72,260,n13)(n72,261,n13)(n72,263,n16)(n72,264,n19)(n72,265,n19)(n72,266,n22)(n72,267,n24)(n72,268,n26)(n72,273,n28)(n72,279,n31)(n72,281,n33)(n72,286,n33)(n72,293,n33)(n72,296,n33)(n72,297,n33)(n72,303,n29)(n72,307,n28)(n72,314,n19)(n72,318,n13)(n72,322,n12)(n72,324,n8)(n72,326,n8)(n72,327,n7)(n72,329,n4)(n72,330,n4)(n72,353,n4)(n72,362,n4)(n72,365,n4)(n72,366,n4)(n72,370,n4)(n72,373,n4)(n72,378,n4)(n72,380,n4)(n72,392,n4)(n72,406,n4)(n72,407,n4)(n72,410,n4)(n72,412,n4)(n73,0,n4)(n73,250,n4)(n73,252,n7)(n73,255,n10)(n73,256,n12)(n73,260,n13)(n73,261,n13)(n73,263,n16)(n73,264,n19)(n73,265,n19)(n73,266,n22)(n73,267,n24)(n73,268,n26)(n73,273,n28)(n73,279,n31)(n73,281,n33)(n73,286,n33)(n73,293,n29)(n73,296,n28)(n73,297,n28)(n73,303,n22)(n73,307,n16)(n73,314,n8)(n73,318,n7)(n73,322,n4)(n73,324,n4)(n73,326,n4)(n73,327,n4)(n73,329,n4)(n73,330,n4)(n73,353,n4)(n73,362,n4)(n73,365,n4)(n73,366,n4)(n73,370,n4)(n73,373,n4)(n73,378,n4)(n73,380,n4)(n73,392,n4)(n73,406,n4)(n73,407,n4)(n73,410,n4)(n73,412,n4)(n73,422,n4)(n74,0,n4)(n74,250,n4)(n74,252,n7)(n74,255,n10)(n74,256,n12)(n74,260,n13)(n74,261,n13)(n74,263,n16)(n74,264,n19)(n74,265,n19)(n74,266,n22)(n74,267,n24)(n74,268,n26)(n74,273,n28)(n74,279,n26)(n74,281,n22)(n74,286,n13)(n74,293,n8)(n74,296,n7)(n74,297,n4)(n74,303,n4)(n74,307,n4)(n74,314,n4)(n74,318,n4)(n74,322,n4)(n74,324,n4)(n74,326,n4)(n74,327,n4)(n74,329,n4)(n74,330,n4)(n74,353,n4)(n74,362,n4)(n74,365,n4)(n74,366,n4)(n74,370,n4)(n74,373,n4)(n74,378,n4)(n74,380,n4)(n74,392,n4)(n74,406,n4)(n74,407,n4)(n74,410,n4)(n74,412,n4)(n74,422,n4)(n74,432,n4)(n75,0,n4)(n75,250,n4)(n75,252,n7)(n75,255,n10)(n75,256,n12)(n75,260,n13)(n75,261,n13)(n75,263,n16)(n75,264,n19)(n75,265,n19)(n75,266,n22)(n75,267,n24)(n75,268,n26)(n75,273,n16)(n75,279,n12)(n75,281,n8)(n75,286,n4)(n75,293,n4)(n75,296,n4)(n75,297,n4)(n75,303,n4)(n75,307,n4)(n75,314,n4)(n75,318,n4)(n75,322,n4)(n75,324,n4)(n75,326,n4)(n75,327,n4)(n75,329,n4)(n75,330,n4)(n75,353,n4)(n75,362,n4)(n75,365,n4)(n75,366,n4)(n75,370,n4)(n75,373,n4)(n75,378,n4)(n75,380,n4)(n75,392,n4)(n75,406,n4)(n75,407,n4)(n75,410,n4)(n75,412,n4)(n75,422,n4)(n75,432,n4)(n75,454,n4)(n76,0,n4)(n76,250,n4)(n76,252,n7)(n76,255,n10)(n76,256,n12)(n76,260,n13)(n76,261,n13)(n76,263,n16)(n76,264,n13)(n76,265,n12)(n76,266,n12)(n76,267,n12)(n76,268,n12)(n76,273,n7)(n76,279,n4)(n76,281,n4)(n76,286,n4)(n76,293,n4)(n76,296,n4)(n76,297,n4)(n76,303,n4)(n76,307,n4)(n76,314,n4)(n76,318,n4)(n76,322,n4)(n76,324,n4)(n76,326,n4)(n76,327,n4)(n76,329,n4)(n76,330,n4)(n76,353,n4)(n76,362,n4)(n76,365,n4)(n76,366,n4)(n76,370,n4)(n76,373,n4)(n76,378,n4)(n76,380,n4)(n76,392,n4)(n76,406,n4)(n76,407,n4)(n76,410,n4)(n76,412,n4)(n76,422,n4)(n76,432,n4)(n76,454,n4)(n76,465,n4)(n77,0,n4)(n77,250,n4)(n77,252,n7)(n77,255,n10)(n77,256,n12)(n77,260,n13)(n77,261,n13)(n77,263,n12)(n77,264,n12)(n77,265,n12)(n77,266,n12)(n77,267,n10)(n77,268,n8)(n77,273,n4)(n77,279,n4)(n77,281,n4)(n77,286,n4)(n77,293,n4)(n77,296,n4)(n77,297,n4)(n77,303,n4)(n77,307,n4)(n77,314,n4)(n77,318,n4)(n77,322,n4)(n77,324,n4)(n77,326,n4)(n77,327,n4)(n77,329,n4)(n77,330,n4)(n77,353,n4)(n77,362,n4)(n77,365,n4)(n77,366,n4)(n77,370,n4)(n77,373,n4)(n77,378,n4)(n77,380,n4)(n77,392,n4)(n77,406,n4)(n77,407,n4)(n77,410,n4)(n77,412,n4)(n77,422,n4)(n77,432,n4)(n77,454,n4)(n77,465,n4)(n77,476,n4)(n78,0,n4)(n78,250,n4)(n78,252,n7)(n78,255,n10)(n78,256,n12)(n78,260,n13)(n78,261,n12)(n78,263,n12)(n78,264,n12)(n78,265,n10)(n78,266,n8)(n78,267,n8)(n78,268,n8)(n78,273,n4)(n78,279,n4)(n78,281,n4)(n78,286,n4)(n78,293,n4)(n78,296,n4)(n78,297,n4)(n78,303,n4)(n78,307,n4)(n78,314,n4)(n78,318,n4)(n78,322,n4)(n78,324,n4)(n78,326,n4)(n78,327,n4)(n78,329,n4)(n78,330,n4)(n78,353,n4)(n78,362,n4)(n78,365,n4)(n78,366,n4)(n78,370,n4)(n78,373,n4)(n78,378,n4)(n78,380,n4)(n78,392,n4)(n78,406,n4)(n78,407,n4)(n78,410,n4)(n78,412,n4)(n78,422,n4)(n78,432,n4)(n78,454,n4)(n78,465,n4)(n78,476,n4)(n78,478,n4)(n79,0,n4)(n79,250,n4)(n79,252,n7)(n79,255,n10)(n79,256,n12)(n79,260,n8)(n79,261,n8)(n79,263,n7)(n79,264,n4)(n79,265,n4)(n79,266,n4)(n79,267,n4)(n79,268,n4)(n79,273,n4)(n79,279,n4)(n79,281,n4)(n79,286,n4)(n79,293,n4)(n79,296,n4)(n79,297,n4)(n79,303,n4)(n79,307,n4)(n79,314,n4)(n79,318,n4)(n79,322,n4)(n79,324,n4)(n79,326,n4)(n79,327,n4)(n79,329,n4)(n79,330,n4)(n79,353,n4)(n79,362,n4)(n79,365,n4)(n79,366,n4)(n79,370,n4)(n79,373,n4)(n79,378,n4)(n79,380,n4)(n79,392,n4)(n79,406,n4)(n79,407,n4)(n79,410,n4)(n79,412,n4)(n79,422,n4)(n79,432,n4)(n79,454,n4)(n79,465,n4)(n79,476,n4)(n79,478,n4)(n79,480,n4) </transitions>
      </mdd>
      <args> b[0][] </args>
      <args> b[1][] </args>
      <args> b[2][] </args>
      <args> b[3][] </args>
      <args> b[4][] </args>
      <args> b[5][] </args>
      <args> b[6][] </args>
      <args> b[7][] </args>
      <args> b[8][] </args>
      <args> b[9][] </args>
      <args> b[10][] </args>
      <args> b[11][] </args>
      <args> b[12][] </args>
      <args> b[13][] </args>
      <args> b[14][] </args>
      <args> b[15][] </args>
      <args> b[16][] </args>
      <args> b[17][] </args>
      <args> b[18][] </args>
      <args> b[19][] </args>
      <args> b[20][] </args>
      <args> b[21][] </args>
      <args> b[22][] </args>
    </group>
    <cardinality>
      <list> b[][] </list>
      <values> 0 250 252 255 256 260 261 263 264 265 266 267 268 273 279 281 286 293 296 297 303 307 314 318 322 324 326 327 329 330 353 362 365 366 370 373 378 380 392 406 407 410 412 422 432 454 465 476 478 480 487 </values>
      <occurs> 9 1 1 2 2 3 1 1 2 1 1 1 1 1 2 2 1 1 1 1 1 1 1 1 1 1 1 1 1 1 1 1 2 1 2 1 1 1 1 1 1 2 1 1 1 1 1 1 1 1 1 </occurs>
    </cardinality>
    <lex class="symmetryBreaking">
      <list> b[0][] </list>
      <list> b[1][] </list>
      <list> b[2][] </list>
      <list> b[3][] </list>
      <list> b[4][] </list>
      <list> b[5][] </list>
      <list> b[6][] </list>
      <list> b[7][] </list>
      <list> b[8][] </list>
      <list> b[9][] </list>
      <list> b[10][] </list>
      <list> b[11][] </list>
      <list> b[12][] </list>
      <list> b[13][] </list>
      <list> b[14][] </list>
      <list> b[15][] </list>
      <list> b[16][] </list>
      <list> b[17][] </list>
      <list> b[18][] </list>
      <list> b[19][] </list>
      <list> b[20][] </list>
      <list> b[21][] </list>
      <list> b[22][] </list>
      <operator> ge </operator>
    </lex>
    <count>
      <list> b[][0] </list>
      <values> 0 </values>
      <condition> (eq,x) </condition>
    </count>
  </constraints>
  <objectives>
    <maximize> x </maximize>
  </objectives>
</instance>
